100 155182
3 50 35 99 45 12 7 48 53 76 44 21 82 46 61 26 36 92 17 41 66 94 14 1 90 72 2 38 23 29 68 86 19 98 67 47 51 70 43 49 8 54 20 59 52 100 69 81 56 42 33 6 91 31 28 77 64 22 74 87 71 15 5 24 57 95 34 4 89 93 37 11 75 63 73 30 40 96 85 25 39 83 79 16 13 60 32 88 18 58 78 62 80 9 27 10 84 55 65 97 
